50
1000
240
239
239
237
237
233
233
232
231
228
228
227
227
226
225
225
225
225
221
220
220
214
214
214
210
209
206
206
205
202
202
200
198
198
198
198
197
192
190
185
184
177
176
175
171
170
167
166
163
162
